46330.0
30, 200, 215, 228, 295, 411, 660, 663, 726, 732, 789, 830, 850, 999, 1028, 1143, 1301, 1354, 1439, 1457, 1617, 1658, 1678, 1805, 1838, 1859, 1873, 1885, 1890, 1944, 2056, 2167, 2171, 2358, 2419, 2467, 2504, 2509, 2510, 2516, 2590, 2811, 2836, 2887, 3008, 3013, 3175, 3273, 3334, 3368, 3405, 3431, 3459, 3475, 3501, 3577, 3631, 3779, 3795, 3952, 3979, 4103, 4131, 4170, 4179, 4357, 4482, 4484, 4527, 4638, 4648